TSPLIB/results8.tsp
NAME : results8
COMMENT : a comment by the user
TYPE : TSP
DIMENSION : 33
EDGE_WEIGHT_TYPE : EXPLICIT
EDGE_WEIGHT_FORMAT: FULL_MATRIX
EDGE_WEIGHT_SECTION
0 0 5957528 65600 64334 5945400 64340 7873350 64300 0 0 5945400 5957528 7873350 7873350 65732 75296 65600 65600 65600 65600 76274 0 9999999999 9999999999 9999999999 9999999999 9999999999 9999999999 9999999999 9999999999 9999999999 9999999999
0 0 64300 4000 89916 65632 89919 64340 75296 65600 65600 65632 64300 64340 64340 75369 64300 0 0 4000 4000 65700 0 9999999999 9999999999 9999999999 9999999999 9999999999 9999999999 9999999999 9999999999 9999999999 9999999999
5957528 64300 0 0 65628 7427072 65632 5945400 64434 5957528 5957528 7427072 0 5945400 5945400 65600 74436 64300 64300 64300 64300 75296 9999999999 0 9999999999 9999999999 9999999999 9999999999 9999999999 9999999999 9999999999 9999999999 9999999999
65600 4000 0 0 89914 65628 89916 64334 75365 65600 65600 65628 64300 64334 64334 75296 64400 4000 4000 0 0 65600 9999999999 0 9999999999 9999999999 9999999999 9999999999 9999999999 9999999999 9999999999 9999999999 9999999999
64334 89916 65628 89914 0 0 4000 65600 75296 64334 64334 64300 65628 65600 65600 75365 96083 89916 89916 89914 89914 95546 9999999999 9999999999 0 9999999999 9999999999 9999999999 9999999999 9999999999 9999999999 9999999999 9999999999
5945400 65632 7427072 65628 0 0 64300 5957528 65600 5945400 5945400 0 7427072 5957528 5957528 64434 76203 65632 65632 65628 65628 75365 9999999999 9999999999 0 9999999999 9999999999 9999999999 9999999999 9999999999 9999999999 9999999999 9999999999
64340 89919 65632 89916 4000 64300 0 0 75369 64340 64340 64300 65632 65600 65600 75296 96129 89919 89919 89916 89916 95502 9999999999 9999999999 9999999999 0 9999999999 9999999999 9999999999 9999999999 9999999999 9999999999 9999999999
7873350 64340 5945400 64334 65600 5957528 0 0 65732 7873350 7873350 5957528 5945400 0 0 64300 75369 64340 64340 64334 64334 74365 9999999999 9999999999 9999999999 0 9999999999 9999999999 9999999999 9999999999 9999999999 9999999999 9999999999
64300 75296 64434 75365 75296 65600 75369 65732 0 0 64300 65600 64434 65732 65732 90016 65600 75296 75296 75365 75365 96172 9999999999 9999999999 9999999999 9999999999 0 9999999999 9999999999 9999999999 9999999999 9999999999 9999999999
0 65600 5957528 65600 64334 5945400 64340 7873350 0 0 0 5945400 5957528 7873350 7873350 65732 75296 65600 65600 65600 65600 76274 9999999999 9999999999 9999999999 9999999999 0 9999999999 9999999999 9999999999 9999999999 9999999999 9999999999
0 65600 5957528 65600 64334 5945400 64340 7873350 64300 0 0 0 5957528 7873350 7873350 65732 75296 65600 65600 65600 65600 76274 9999999999 9999999999 9999999999 9999999999 9999999999 0 9999999999 9999999999 9999999999 9999999999 9999999999
5945400 65632 7427072 65628 64300 0 64300 5957528 65600 5945400 0 0 7427072 5957528 5957528 64434 76203 65632 65632 65628 65628 75365 9999999999 9999999999 9999999999 9999999999 9999999999 0 9999999999 9999999999 9999999999 9999999999 9999999999
5957528 64300 0 64300 65628 7427072 65632 5945400 64434 5957528 5957528 7427072 0 0 5945400 65600 74436 64300 64300 64300 64300 75296 9999999999 9999999999 9999999999 9999999999 9999999999 9999999999 0 9999999999 9999999999 9999999999 9999999999
7873350 64340 5945400 64334 65600 5957528 65600 0 65732 7873350 7873350 5957528 0 0 0 64300 75369 64340 64340 64334 64334 74365 9999999999 9999999999 9999999999 9999999999 9999999999 9999999999 0 9999999999 9999999999 9999999999 9999999999
7873350 64340 5945400 64334 65600 5957528 65600 0 65732 7873350 7873350 5957528 5945400 0 0 0 75369 64340 64340 64334 64334 74365 9999999999 9999999999 9999999999 9999999999 9999999999 9999999999 9999999999 0 9999999999 9999999999 9999999999
65732 75369 65600 75296 75365 64434 75296 64300 90016 65732 65732 64434 65600 64300 0 0 95592 75369 75369 75296 75296 64300 9999999999 9999999999 9999999999 9999999999 9999999999 9999999999 9999999999 0 9999999999 9999999999 9999999999
75296 64300 74436 64400 96083 76203 96129 75369 65600 75296 75296 76203 74436 75369 75369 95592 0 0 64300 64400 64400 90000 9999999999 9999999999 9999999999 9999999999 9999999999 9999999999 9999999999 9999999999 0 9999999999 9999999999
65600 0 64300 4000 89916 65632 89919 64340 75296 65600 65600 65632 64300 64340 64340 75369 0 0 0 4000 4000 65700 9999999999 9999999999 9999999999 9999999999 9999999999 9999999999 9999999999 9999999999 0 9999999999 9999999999
65600 0 64300 4000 89916 65632 89919 64340 75296 65600 65600 65632 64300 64340 64340 75369 64300 0 0 0 4000 65700 9999999999 9999999999 9999999999 9999999999 9999999999 9999999999 9999999999 9999999999 9999999999 0 9999999999
65600 4000 64300 0 89914 65628 89916 64334 75365 65600 65600 65628 64300 64334 64334 75296 64400 4000 0 0 0 65600 9999999999 9999999999 9999999999 9999999999 9999999999 9999999999 9999999999 9999999999 9999999999 0 9999999999
65600 4000 64300 0 89914 65628 89916 64334 75365 65600 65600 65628 64300 64334 64334 75296 64400 4000 4000 0 0 0 9999999999 9999999999 9999999999 9999999999 9999999999 9999999999 9999999999 9999999999 9999999999 9999999999 0
76274 65700 75296 65600 95546 75365 95502 74365 96172 76274 76274 75365 75296 74365 74365 64300 90000 65700 65700 65600 0 0 9999999999 9999999999 9999999999 9999999999 9999999999 9999999999 9999999999 9999999999 9999999999 9999999999 0
0 0 9999999999 9999999999 9999999999 9999999999 9999999999 9999999999 9999999999 9999999999 9999999999 9999999999 9999999999 9999999999 9999999999 9999999999 9999999999 9999999999 9999999999 9999999999 9999999999 9999999999 0 9999999999 9999999999 9999999999 9999999999 9999999999 9999999999 9999999999 9999999999 9999999999 9999999999
9999999999 9999999999 0 0 9999999999 9999999999 9999999999 9999999999 9999999999 9999999999 9999999999 9999999999 9999999999 9999999999 9999999999 9999999999 9999999999 9999999999 9999999999 9999999999 9999999999 9999999999 9999999999 0 9999999999 9999999999 9999999999 9999999999 9999999999 9999999999 9999999999 9999999999 9999999999
9999999999 9999999999 9999999999 9999999999 0 0 9999999999 9999999999 9999999999 9999999999 9999999999 9999999999 9999999999 9999999999 9999999999 9999999999 9999999999 9999999999 9999999999 9999999999 9999999999 9999999999 9999999999 9999999999 0 9999999999 9999999999 9999999999 9999999999 9999999999 9999999999 9999999999 9999999999
9999999999 9999999999 9999999999 9999999999 9999999999 9999999999 0 0 9999999999 9999999999 9999999999 9999999999 9999999999 9999999999 9999999999 9999999999 9999999999 9999999999 9999999999 9999999999 9999999999 9999999999 9999999999 9999999999 9999999999 0 9999999999 9999999999 9999999999 9999999999 9999999999 9999999999 9999999999
9999999999 9999999999 9999999999 9999999999 9999999999 9999999999 9999999999 9999999999 0 0 9999999999 9999999999 9999999999 9999999999 9999999999 9999999999 9999999999 9999999999 9999999999 9999999999 9999999999 9999999999 9999999999 9999999999 9999999999 9999999999 0 9999999999 9999999999 9999999999 9999999999 9999999999 9999999999
9999999999 9999999999 9999999999 9999999999 9999999999 9999999999 9999999999 9999999999 9999999999 9999999999 0 0 9999999999 9999999999 9999999999 9999999999 9999999999 9999999999 9999999999 9999999999 9999999999 9999999999 9999999999 9999999999 9999999999 9999999999 9999999999 0 9999999999 9999999999 9999999999 9999999999 9999999999
9999999999 9999999999 9999999999 9999999999 9999999999 9999999999 9999999999 9999999999 9999999999 9999999999 9999999999 9999999999 0 0 9999999999 9999999999 9999999999 9999999999 9999999999 9999999999 9999999999 9999999999 9999999999 9999999999 9999999999 9999999999 9999999999 9999999999 0 9999999999 9999999999 9999999999 9999999999
9999999999 9999999999 9999999999 9999999999 9999999999 9999999999 9999999999 9999999999 9999999999 9999999999 9999999999 9999999999 9999999999 9999999999 0 0 9999999999 9999999999 9999999999 9999999999 9999999999 9999999999 9999999999 9999999999 9999999999 9999999999 9999999999 9999999999 9999999999 0 9999999999 9999999999 9999999999
9999999999 9999999999 9999999999 9999999999 9999999999 9999999999 9999999999 9999999999 9999999999 9999999999 9999999999 9999999999 9999999999 9999999999 9999999999 9999999999 0 0 9999999999 9999999999 9999999999 9999999999 9999999999 9999999999 9999999999 9999999999 9999999999 9999999999 9999999999 9999999999 0 9999999999 9999999999
9999999999 9999999999 9999999999 9999999999 9999999999 9999999999 9999999999 9999999999 9999999999 9999999999 9999999999 9999999999 9999999999 9999999999 9999999999 9999999999 9999999999 9999999999 0 0 9999999999 9999999999 9999999999 9999999999 9999999999 9999999999 9999999999 9999999999 9999999999 9999999999 9999999999 0 9999999999
9999999999 9999999999 9999999999 9999999999 9999999999 9999999999 9999999999 9999999999 9999999999 9999999999 9999999999 9999999999 9999999999 9999999999 9999999999 9999999999 9999999999 9999999999 9999999999 9999999999 0 0 9999999999 9999999999 9999999999 9999999999 9999999999 9999999999 9999999999 9999999999 9999999999 9999999999 0
EOF
