TSPLIB/results8.txt
NAME : results8.211969.tour
COMMENT : Length = 211969
COMMENT : Found by LKH [Keld Helsgaun] Tue Dec 11 21:24:43 2018
TYPE : TOUR
DIMENSION : 33
TOUR_SECTION
1
10
27
9
11
28
12
6
25
5
7
26
8
17
31
18
21
33
22
16
30
15
14
29
13
3
24
4
20
32
19
2
23
-1
EOF
